<?xml version="1.0" encoding="UTF-8"?><osil xmlns="os.optimizationservices.org" xmlns:xsi="http://www.w3.org/2001/XMLSchema-instance" xsi:schemaLocation="os.optimizationservices.org http://www.optimizationservices.org/schemas/2.0/OSiL.xsd"><instanceHeader><name>rsyn0810m</name></instanceHeader><instanceData><variables numberOfVariables="185"><var name="x2"/><var name="x3"/><var name="x4"/><var name="x5"/><var name="x6"/><var name="x7"/><var name="x8"/><var name="x9"/><var name="x10"/><var name="x11"/><var name="x12"/><var name="x13"/><var name="x14"/><var name="x15"/><var name="x16"/><var name="x17"/><var name="x18"/><var name="x19"/><var name="x20"/><var name="x21"/><var name="x22"/><var name="x23"/><var name="x24"/><var name="x25"/><var name="x26"/><var name="x27"/><var name="x28"/><var name="x29"/><var name="x30"/><var name="x31"/><var name="x32"/><var name="x33"/><var name="x34"/><var name="x35"/><var name="x36"/><var name="x37"/><var name="x38"/><var name="x39"/><var name="x40"/><var name="x41"/><var name="x42"/><var name="x43"/><var name="x44"/><var name="x45"/><var name="x46"/><var name="x47"/><var name="x48"/><var name="x49"/><var name="x50"/><var name="x51"/><var name="x52"/><var name="x53"/><var name="x54"/><var name="x55"/><var name="x56"/><var name="x57"/><var name="x58"/><var name="x59"/><var name="x60"/><var name="x61"/><var name="x62"/><var name="x63"/><var name="x64"/><var name="x65"/><var name="x66"/><var name="x67"/><var name="x68"/><var name="x69"/><var name="x70"/><var name="x71"/><var name="x72"/><var name="x73"/><var name="x74"/><var name="x75"/><var name="x76"/><var name="x77"/><var name="x78"/><var name="x79"/><var name="x80"/><var name="x81"/><var name="x82"/><var name="x83"/><var name="x84"/><var name="x85"/><var name="x86"/><var name="x87"/><var name="b88" type="B" ub="1"/><var name="b89" type="B" ub="1"/><var name="b90" type="B" ub="1"/><var name="b91" type="B" ub="1"/><var name="b92" type="B" ub="1"/><var name="b93" type="B" ub="1"/><var name="b94" type="B" ub="1"/><var name="b95" type="B" ub="1"/><var name="b96" type="B" ub="1"/><var name="b97" type="B" ub="1"/><var name="b98" type="B" ub="1"/><var name="b99" type="B" ub="1"/><var name="b100" type="B" ub="1"/><var name="b101" type="B" ub="1"/><var name="b102" type="B" ub="1"/><var name="b103" type="B" ub="1"/><var name="b104" type="B" ub="1"/><var name="b105" type="B" ub="1"/><var name="b106" type="B" ub="1"/><var name="b107" type="B" ub="1"/><var name="b108" type="B" ub="1"/><var name="b109" type="B" ub="1"/><var name="b110" type="B" ub="1"/><var name="b111" type="B" ub="1"/><var name="b112" type="B" ub="1"/><var name="b113" type="B" ub="1"/><var name="b114" type="B" ub="1"/><var name="b115" type="B" ub="1"/><var name="b116" type="B" ub="1"/><var name="b117" type="B" ub="1"/><var name="b118" type="B" ub="1"/><var name="b119" type="B" ub="1"/><var name="b120" type="B" ub="1"/><var name="b121" type="B" ub="1"/><var name="b122" type="B" ub="1"/><var name="b123" type="B" ub="1"/><var name="b124" type="B" ub="1"/><var name="b125" type="B" ub="1"/><var name="b126" type="B" ub="1"/><var name="b127" type="B" ub="1"/><var name="b128" type="B" ub="1"/><var name="b129" type="B" ub="1"/><var name="b130" type="B" ub="1"/><var name="b131" type="B" ub="1"/><var name="b132" type="B" ub="1"/><var name="b133" type="B" ub="1"/><var name="b134" type="B" ub="1"/><var name="b135" type="B" ub="1"/><var name="b136" type="B" ub="1"/><var name="b137" type="B" ub="1"/><var name="b138" type="B" ub="1"/><var name="b139" type="B" ub="1"/><var name="b140" type="B" ub="1"/><var name="b141" type="B" ub="1"/><var name="b142" type="B" ub="1"/><var name="b143" type="B" ub="1"/><var name="b144" type="B" ub="1"/><var name="b145" type="B" ub="1"/><var name="b146" type="B" ub="1"/><var name="b147" type="B" ub="1"/><var name="b148" type="B" ub="1"/><var name="b149" type="B" ub="1"/><var name="b150" type="B" ub="1"/><var name="b151" type="B" ub="1"/><var name="x152" ub="10"/><var name="x153"/><var name="x154"/><var name="x155"/><var name="x156"/><var name="x157"/><var name="x158"/><var name="x159"/><var name="x160"/><var name="x161"/><var name="x162"/><var name="x163" ub="7"/><var name="x164"/><var name="x165"/><var name="x166"/><var name="x167"/><var name="x168"/><var name="x169"/><var name="x170"/><var name="x171"/><var name="x172"/><var name="x173"/><var name="x174"/><var name="x175"/><var name="x176"/><var name="b177" type="B" ub="1"/><var name="b178" type="B" ub="1"/><var name="b179" type="B" ub="1"/><var name="b180" type="B" ub="1"/><var name="b181" type="B" ub="1"/><var name="b182" type="B" ub="1"/><var name="b183" type="B" ub="1"/><var name="b184" type="B" ub="1"/><var name="b185" type="B" ub="1"/><var name="b186" type="B" ub="1"/></variables><objectives><obj maxOrMin="max" name="defObj_objvar" numberOfObjCoef="53"><coef idx="0">-4</coef><coef idx="5">-8</coef><coef idx="9">-5</coef><coef idx="21">-8</coef><coef idx="25">23</coef><coef idx="27">19</coef><coef idx="28">-10</coef><coef idx="31">2</coef><coef idx="32">3</coef><coef idx="33">25</coef><coef idx="34">24</coef><coef idx="87">-6</coef><coef idx="88">-40</coef><coef idx="89">-46</coef><coef idx="91">-7</coef><coef idx="92">-30</coef><coef idx="93">-37</coef><coef idx="95">-7</coef><coef idx="96">-15</coef><coef idx="97">-22</coef><coef idx="99">-11</coef><coef idx="100">-13</coef><coef idx="101">-24</coef><coef idx="103">-10</coef><coef idx="104">-13</coef><coef idx="105">-23</coef><coef idx="107">-9</coef><coef idx="108">-30</coef><coef idx="109">-39</coef><coef idx="111">-8</coef><coef idx="112">-20</coef><coef idx="113">-28</coef><coef idx="115">-8</coef><coef idx="116">-15</coef><coef idx="117">-23</coef><coef idx="156">5</coef><coef idx="161">-2</coef><coef idx="169">200</coef><coef idx="170">2.5e2</coef><coef idx="171">200</coef><coef idx="172">200</coef><coef idx="173">500</coef><coef idx="174">3.5e2</coef><coef idx="175">-5</coef><coef idx="176">-8</coef><coef idx="177">-6</coef><coef idx="178">-10</coef><coef idx="179">-6</coef><coef idx="180">-7</coef><coef idx="181">-4</coef><coef idx="182">-5</coef><coef idx="183">-2</coef><coef idx="184">-4</coef></obj></objectives><constraints numberOfConstraints="312"><con name="e2" lb="0" ub="0"/><con name="e3" lb="0" ub="0"/><con name="e4" lb="0" ub="0"/><con name="e5" lb="0" ub="0"/><con name="e6" lb="0" ub="0"/><con name="e7" lb="0" ub="0"/><con name="e8" lb="0" ub="0"/><con name="e9" lb="0" ub="0"/><con name="e10" lb="0" ub="0"/><con name="e11" lb="0" ub="0"/><con name="e12" lb="0" ub="0"/><con name="e13" lb="0" ub="0"/><con name="e14" lb="0" ub="0"/><con name="e15" lb="0" ub="0"/><con name="e16" lb="0" ub="0"/><con name="e17" lb="0" ub="0"/><con name="e18" lb="0" ub="0"/><con name="e19" lb="0" ub="0"/><con name="e20" lb="0" ub="0"/><con name="e21" lb="0" ub="0"/><con name="e22" lb="0" ub="0"/><con name="e23" lb="0" ub="0"/><con name="e24" lb="0" ub="0"/><con name="e25" lb="0" ub="0"/><con name="e26" lb="0" ub="0"/><con name="e27" lb="0" ub="0"/><con name="e28" lb="0" ub="0"/><con name="e29" lb="0" ub="0"/><con name="e30" lb="0" ub="0"/><con name="e31" lb="0" ub="0"/><con name="e32" lb="0" ub="0"/><con name="e33" lb="0" ub="0"/><con name="e34" lb="0" ub="0"/><con name="e35" lb="0" ub="0"/><con name="e36" lb="0" ub="0"/><con name="e37" lb=".4"/><con name="e38" lb=".3"/><con name="e39" lb=".2"/><con name="e40" lb=".5"/><con name="e41" lb=".2"/><con name="e42" lb=".3"/><con name="e43" ub="35"/><con name="e44" ub="36"/><con name="e45" ub="25"/><con name="e46" ub="24"/><con name="e47" ub="30"/><con name="e48" lb="0" ub="0"/><con name="e49" lb="0" ub="0"/><con name="e50" lb="0" ub="0"/><con name="e51" lb="0" ub="0"/><con name="e52" lb="0" ub="0"/><con name="e53" lb="0" ub="0"/><con name="e54" lb="0" ub="0"/><con name="e55" lb="0" ub="0"/><con name="e56" lb="0" ub="0"/><con name="e57" lb="0" ub="0"/><con name="e58" lb="0" ub="0"/><con name="e59" lb="0" ub="0"/><con name="e60" lb="0" ub="0"/><con name="e61" lb="0" ub="0"/><con name="e62" lb="0" ub="0"/><con name="e63" lb="0" ub="0"/><con name="e64" lb="0" ub="0"/><con name="e65" lb="0" ub="0"/><con name="e66" lb="0" ub="0"/><con name="e67" lb="0" ub="0"/><con name="e68" ub="0"/><con name="e69" ub="0"/><con name="e70" ub="0"/><con name="e71" ub="148.75"/><con name="e72" ub="148.75"/><con name="e73" ub="148.75"/><con name="e74" ub="148.75"/><con name="e75" lb="-148.75"/><con name="e76" lb="-148.75"/><con name="e77" lb="-148.75"/><con name="e78" lb="-148.75"/><con name="e79" ub="254.045833333333"/><con name="e80" ub="254.045833333333"/><con name="e81" ub="254.045833333333"/><con name="e82" ub="254.045833333333"/><con name="e83" lb="-166.25"/><con name="e84" lb="-166.25"/><con name="e85" lb="-166.25"/><con name="e86" lb="-166.25"/><con name="e87" ub="20.4166666666667"/><con name="e88" ub="20.4166666666667"/><con name="e89" ub="20.4166666666667"/><con name="e90" ub="20.4166666666667"/><con name="e91" ub="20.4166666666667"/><con name="e92" ub="20.4166666666667"/><con name="e93" ub="20.4166666666667"/><con name="e94" ub="20.4166666666667"/><con name="e95" lb="-20.4166666666667"/><con name="e96" lb="-20.4166666666667"/><con name="e97" lb="-20.4166666666667"/><con name="e98" lb="-20.4166666666667"/><con name="e99" lb="-20.4166666666667"/><con name="e100" lb="-20.4166666666667"/><con name="e101" lb="-20.4166666666667"/><con name="e102" lb="-20.4166666666667"/><con name="e103" ub="18.75"/><con name="e104" ub="18.75"/><con name="e105" ub="18.75"/><con name="e106" ub="18.75"/><con name="e107" lb="-18.75"/><con name="e108" lb="-18.75"/><con name="e109" lb="-18.75"/><con name="e110" lb="-18.75"/><con name="e111" ub="17.8125"/><con name="e112" ub="17.8125"/><con name="e113" ub="17.8125"/><con name="e114" ub="17.8125"/><con name="e115" ub="17.8125"/><con name="e116" ub="17.8125"/><con name="e117" ub="17.8125"/><con name="e118" ub="17.8125"/><con name="e119" lb="-17.8125"/><con name="e120" lb="-17.8125"/><con name="e121" lb="-17.8125"/><con name="e122" lb="-17.8125"/><con name="e123" lb="-17.8125"/><con name="e124" lb="-17.8125"/><con name="e125" lb="-17.8125"/><con name="e126" lb="-17.8125"/><con name="e127" ub="66.9375"/><con name="e128" ub="66.9375"/><con name="e129" ub="66.9375"/><con name="e130" ub="66.9375"/><con name="e131" lb="-15.9375"/><con name="e132" lb="-15.9375"/><con name="e133" lb="-15.9375"/><con name="e134" lb="-15.9375"/><con name="e135" ub="94.4571428571429"/><con name="e136" ub="94.4571428571429"/><con name="e137" ub="94.4571428571429"/><con name="e138" ub="94.4571428571429"/><con name="e139" lb="-57"/><con name="e140" lb="-57"/><con name="e141" lb="-57"/><con name="e142" lb="-57"/><con name="e143" ub="39.4285714285714"/><con name="e144" ub="39.4285714285714"/><con name="e145" ub="39.4285714285714"/><con name="e146" ub="39.4285714285714"/><con name="e147" lb="-39.4285714285714"/><con name="e148" lb="-39.4285714285714"/><con name="e149" lb="-39.4285714285714"/><con name="e150" lb="-39.4285714285714"/><con name="e151" ub="35"/><con name="e152" ub="35"/><con name="e153" ub="35"/><con name="e154" ub="35"/><con name="e155" ub="96"/><con name="e156" ub="96"/><con name="e157" ub="96"/><con name="e158" ub="96"/><con name="e159" ub="25"/><con name="e160" ub="25"/><con name="e161" ub="25"/><con name="e162" ub="25"/><con name="e163" ub="25"/><con name="e164" ub="25"/><con name="e165" ub="25"/><con name="e166" ub="25"/><con name="e167" ub="25"/><con name="e168" ub="25"/><con name="e169" ub="25"/><con name="e170" ub="25"/><con name="e171" ub="49"/><con name="e172" ub="49"/><con name="e173" ub="49"/><con name="e174" ub="49"/><con name="e175" ub="54"/><con name="e176" ub="54"/><con name="e177" ub="54"/><con name="e178" ub="54"/><con name="e179" ub="30"/><con name="e180" ub="30"/><con name="e181" ub="30"/><con name="e182" ub="30"/><con name="e183" ub="46"/><con name="e184" ub="46"/><con name="e185" ub="46"/><con name="e186" ub="46"/><con name="e187" ub="37"/><con name="e188" ub="37"/><con name="e189" ub="37"/><con name="e190" ub="37"/><con name="e191" ub="22"/><con name="e192" ub="22"/><con name="e193" ub="22"/><con name="e194" ub="22"/><con name="e195" ub="24"/><con name="e196" ub="24"/><con name="e197" ub="24"/><con name="e198" ub="24"/><con name="e199" ub="23"/><con name="e200" ub="23"/><con name="e201" ub="23"/><con name="e202" ub="23"/><con name="e203" ub="39"/><con name="e204" ub="39"/><con name="e205" ub="39"/><con name="e206" ub="39"/><con name="e207" ub="28"/><con name="e208" ub="28"/><con name="e209" ub="28"/><con name="e210" ub="28"/><con name="e211" ub="23"/><con name="e212" ub="23"/><con name="e213" ub="23"/><con name="e214" ub="23"/><con name="e215" lb="0"/><con name="e216" lb="0"/><con name="e217" lb="0"/><con name="e218" lb="0"/><con name="e219" lb="0"/><con name="e220" lb="0"/><con name="e221" lb="0"/><con name="e222" lb="0"/><con name="e223" lb="0"/><con name="e224" lb="0"/><con name="e225" lb="0"/><con name="e226" lb="0"/><con name="e227" lb="0"/><con name="e228" lb="0"/><con name="e229" lb="0"/><con name="e230" lb="0"/><con name="e231" lb="0"/><con name="e232" lb="0"/><con name="e233" lb="0"/><con name="e234" lb="0"/><con name="e235" lb="0"/><con name="e236" lb="0"/><con name="e237" lb="0"/><con name="e238" lb="0"/><con name="e239" lb="0"/><con name="e240" lb="0"/><con name="e241" lb="0"/><con name="e242" lb="0"/><con name="e243" lb="0"/><con name="e244" lb="0"/><con name="e245" lb="0"/><con name="e246" lb="0"/><con name="e247" ub="4e3"/><con name="e248" lb="1" ub="1"/><con name="e249" lb="1" ub="1"/><con name="e250" lb="1" ub="1"/><con name="e251" lb="1" ub="1"/><con name="e252" lb="1" ub="1"/><con name="e253" lb="1" ub="1"/><con name="e254" lb="1" ub="1"/><con name="e255" lb="1" ub="1"/><con name="e256" lb="0" ub="0"/><con name="e257" lb="0" ub="0"/><con name="e258" lb="0" ub="0"/><con name="e259" lb="0" ub="0"/><con name="e260" lb="0" ub="0"/><con name="e261" lb="0" ub="0"/><con name="e262" lb="0" ub="0"/><con name="e263" lb="0" ub="0"/><con name="e264" lb="0" ub="0"/><con name="e265" lb="0" ub="0"/><con name="e266" ub="1"/><con name="e267" ub="0"/><con name="e268" ub="0"/><con name="e269" ub="1"/><con name="e270" ub="0"/><con name="e271" ub="0"/><con name="e272" ub="1"/><con name="e273" lb="-1"/><con name="e274" ub="0"/><con name="e275" ub="0"/><con name="e276" ub="1"/><con name="e277" ub="0"/><con name="e278" ub="0"/><con name="e279" ub="1"/><con name="e280" lb="-1"/><con name="e281" ub="1"/><con name="e282" lb="-1"/><con name="e283" ub="0"/><con name="e284" ub="0"/><con name="e285" ub="0"/><con name="e286" ub="1"/><con name="e287" ub="0"/><con name="e288" ub="0"/><con name="e289" ub="1"/><con name="e290" ub="0"/><con name="e291" ub="0"/><con name="e292" ub="1"/><con name="e293" ub="0"/><con name="e294" ub="0"/><con name="e295" ub="1"/><con name="e296" lb="-1"/><con name="e297" ub="0"/><con name="e298" ub="0"/><con name="e299" ub="1"/><con name="e300" lb="-1"/><con name="e301" ub="0"/><con name="e302" ub="0"/><con name="e303" lb="1" ub="1"/><con name="e304" lb="0"/><con name="e305" lb="0"/><con name="e306" lb="0"/><con name="e307" lb="0"/><con name="e308" lb="0"/><con name="e309" lb="0"/><con name="e310" lb="0"/><con name="e311" lb="0"/><con name="e312" lb="0"/><con name="e313" lb="0"/></constraints><linearConstraintCoefficients numberOfValues="757"><start><el mult="36" incr="2">0</el><el mult="11" incr="1">71</el><el>84</el><el mult="5" incr="3">86</el><el>100</el><el>102</el><el mult="4" incr="2">105</el><el mult="3" incr="4">114</el><el mult="4" incr="4">125</el><el mult="4" incr="2">140</el><el mult="80" incr="3">149</el><el mult="4" incr="2">388</el><el mult="4" incr="3">397</el><el>408</el><el mult="3" incr="1">410</el><el mult="8" incr="2">414</el><el mult="8" incr="3">431</el><el mult="7" incr="2">454</el><el mult="4" incr="2">467</el><el mult="4" incr="2">474</el><el mult="4" incr="2">481</el><el mult="4" incr="2">488</el><el mult="4" incr="2">495</el><el mult="4" incr="2">502</el><el mult="4" incr="2">509</el><el>516</el><el mult="4" incr="2">517</el><el mult="4" incr="2">524</el><el mult="4" incr="2">531</el><el mult="4" incr="2">538</el><el mult="4" incr="2">545</el><el mult="4" incr="2">552</el><el mult="4" incr="2">559</el><el mult="4" incr="2">566</el><el mult="9" incr="4">585</el><el>620</el><el mult="3" incr="2">623</el><el mult="3" incr="3">630</el><el>640</el><el>643</el><el mult="7" incr="2">647</el><el>662</el><el mult="6" incr="2">665</el><el mult="4" incr="3">678</el><el mult="12" incr="2">689</el><el>714</el><el mult="3" incr="2">717</el><el>724</el><el mult="4" incr="2">727</el><el>736</el><el mult="4" incr="3">738</el><el mult="5" incr="2">749</el></start><colIdx><el>0</el><el>35</el><el>1</el><el>36</el><el>2</el><el>37</el><el>3</el><el>38</el><el>4</el><el>39</el><el>5</el><el>40</el><el>6</el><el>41</el><el>7</el><el>42</el><el>8</el><el>43</el><el>9</el><el>44</el><el>10</el><el>45</el><el>11</el><el>46</el><el>12</el><el>47</el><el>13</el><el>48</el><el>14</el><el>49</el><el>15</el><el>50</el><el>16</el><el>51</el><el>17</el><el>52</el><el>18</el><el>53</el><el>19</el><el>54</el><el>20</el><el>55</el><el>21</el><el>56</el><el>22</el><el>57</el><el>23</el><el>58</el><el>24</el><el>59</el><el>25</el><el>60</el><el>26</el><el>61</el><el>27</el><el>62</el><el>28</el><el>63</el><el>29</el><el>64</el><el>30</el><el>65</el><el>31</el><el>66</el><el>32</el><el>67</el><el>33</el><el>68</el><el>34</el><el>69</el><el>25</el><el>27</el><el mult="4" incr="1">31</el><el>0</el><el>5</el><el>9</el><el>21</el><el>28</el><el mult="7" incr="1">0</el><el>11</el><el>7</el><el>8</el><el>12</el><el>9</el><el>10</el><el mult="5" incr="1">13</el><el>19</el><el>18</el><el mult="10" incr="1">20</el><el>1</el><el>3</el><el>70</el><el>2</el><el>6</el><el>7</el><el>71</el><el mult="3" incr="1">10</el><el>72</el><el>13</el><el>14</el><el>73</el><el mult="3" incr="1">16</el><el>74</el><el>15</el><el>22</el><el>24</el><el>75</el><el>23</el><el>26</el><el>30</el><el>76</el><el>29</el><el>30</el><el>77</el><el>37</el><el>41</el><el>50</el><el>57</el><el>58</el><el>65</el><el>36</el><el>38</el><el>86</el><el>36</el><el>38</el><el>87</el><el>36</el><el>38</el><el>88</el><el>36</el><el>38</el><el>89</el><el>36</el><el>38</el><el>86</el><el>36</el><el>38</el><el>87</el><el>36</el><el>38</el><el>88</el><el>36</el><el>38</el><el>89</el><el>37</el><el>42</el><el>90</el><el>37</el><el>42</el><el>91</el><el>37</el><el>42</el><el>92</el><el>37</el><el>42</el><el>93</el><el>37</el><el>42</el><el>90</el><el>37</el><el>42</el><el>91</el><el>37</el><el>42</el><el>92</el><el>37</el><el>42</el><el>93</el><el>45</el><el>46</el><el>94</el><el>45</el><el>46</el><el>95</el><el>45</el><el>46</el><el>96</el><el>45</el><el>46</el><el>97</el><el>45</el><el>47</el><el>94</el><el>45</el><el>47</el><el>95</el><el>45</el><el>47</el><el>96</el><el>45</el><el>47</el><el>97</el><el>45</el><el>46</el><el>94</el><el>45</el><el>46</el><el>95</el><el>45</el><el>46</el><el>96</el><el>45</el><el>46</el><el>97</el><el>45</el><el>47</el><el>94</el><el>45</el><el>47</el><el>95</el><el>45</el><el>47</el><el>96</el><el>45</el><el>47</el><el>97</el><el>48</el><el>49</el><el>98</el><el>48</el><el>49</el><el>99</el><el>48</el><el>49</el><el>100</el><el>48</el><el>49</el><el>101</el><el>48</el><el>49</el><el>98</el><el>48</el><el>49</el><el>99</el><el>48</el><el>49</el><el>100</el><el>48</el><el>49</el><el>101</el><el>51</el><el>52</el><el>102</el><el>51</el><el>52</el><el>103</el><el>51</el><el>52</el><el>104</el><el>51</el><el>52</el><el>105</el><el>51</el><el>53</el><el>102</el><el>51</el><el>53</el><el>103</el><el>51</el><el>53</el><el>104</el><el>51</el><el>53</el><el>105</el><el>51</el><el>52</el><el>102</el><el>51</el><el>52</el><el>103</el><el>51</el><el>52</el><el>104</el><el>51</el><el>52</el><el>105</el><el>51</el><el>53</el><el>102</el><el>51</el><el>53</el><el>103</el><el>51</el><el>53</el><el>104</el><el>51</el><el>53</el><el>105</el><el>50</el><el>59</el><el>106</el><el>50</el><el>59</el><el>107</el><el>50</el><el>59</el><el>108</el><el>50</el><el>59</el><el>109</el><el>50</el><el>59</el><el>106</el><el>50</el><el>59</el><el>107</el><el>50</el><el>59</el><el>108</el><el>50</el><el>59</el><el>109</el><el>58</el><el>61</el><el>110</el><el>58</el><el>61</el><el>111</el><el>58</el><el>61</el><el>112</el><el>58</el><el>61</el><el>113</el><el>58</el><el>61</el><el>110</el><el>58</el><el>61</el><el>111</el><el>58</el><el>61</el><el>112</el><el>58</el><el>61</el><el>113</el><el>64</el><el>65</el><el>114</el><el>64</el><el>65</el><el>115</el><el>64</el><el>65</el><el>116</el><el>64</el><el>65</el><el>117</el><el>64</el><el>65</el><el>114</el><el>64</el><el>65</el><el>115</el><el>64</el><el>65</el><el>116</el><el>64</el><el>65</el><el>117</el><el>1</el><el>86</el><el>1</el><el>87</el><el>1</el><el>88</el><el>1</el><el>89</el><el>2</el><el>6</el><el>90</el><el>2</el><el>6</el><el>91</el><el>2</el><el>6</el><el>92</el><el>2</el><el>6</el><el>93</el><el>10</el><el>94</el><el>10</el><el>95</el><el mult="2">10</el><el>13</el><el>98</el><el>13</el><el>99</el><el>13</el><el>100</el><el>13</el><el>101</el><el>16</el><el>102</el><el>16</el><el>103</el><el>16</el><el>104</el><el>16</el><el>105</el><el>15</el><el>22</el><el>106</el><el>15</el><el>22</el><el>107</el><el>15</el><el>22</el><el>108</el><el>15</el><el>22</el><el>109</el><el>23</el><el>30</el><el>110</el><el>23</el><el>30</el><el>111</el><el>23</el><el>30</el><el>112</el><el>23</el><el>30</el><el>113</el><el>29</el><el>114</el><el>29</el><el>115</el><el>29</el><el>116</el><el>29</el><el>117</el><el>78</el><el>118</el><el>78</el><el>119</el><el>78</el><el>120</el><el>78</el><el>79</el><el>122</el><el>79</el><el>123</el><el>79</el><el>124</el><el>79</el><el>80</el><el>126</el><el>80</el><el>127</el><el>80</el><el>128</el><el>80</el><el>81</el><el>130</el><el>81</el><el>131</el><el>81</el><el>132</el><el>81</el><el>82</el><el>134</el><el>82</el><el>135</el><el>82</el><el>136</el><el>82</el><el>83</el><el>138</el><el>83</el><el>139</el><el>83</el><el>140</el><el>83</el><el>84</el><el>142</el><el>84</el><el>143</el><el>84</el><el>144</el><el>84</el><el>85</el><el>146</el><el>85</el><el>147</el><el>85</el><el>148</el><el>85</el><el mult="2">78</el><el>119</el><el>78</el><el>120</el><el>78</el><el>121</el><el mult="2">79</el><el>123</el><el>79</el><el>124</el><el>79</el><el>125</el><el mult="2">80</el><el>127</el><el>80</el><el>128</el><el>80</el><el>129</el><el mult="2">81</el><el>131</el><el>81</el><el>132</el><el>81</el><el>133</el><el mult="2">82</el><el>135</el><el>82</el><el>136</el><el>82</el><el>137</el><el mult="2">83</el><el>139</el><el>83</el><el>140</el><el>83</el><el>141</el><el mult="2">84</el><el>143</el><el>84</el><el>144</el><el>84</el><el>145</el><el mult="2">85</el><el>147</el><el>85</el><el>148</el><el>85</el><el>149</el><el>0</el><el>5</el><el>9</el><el>21</el><el>28</el><el mult="40" incr="1">78</el><el>4</el><el>31</el><el>150</el><el>8</el><el>32</el><el>161</el><el>19</el><el>33</el><el>20</el><el>34</el><el mult="6" incr="1">150</el><el mult="3" incr="1">155</el><el mult="4" incr="1">157</el><el>162</el><el>165</el><el>166</el><el>164</el><el mult="3" incr="1">167</el><el>153</el><el>175</el><el>151</el><el>175</el><el>153</el><el>175</el><el>154</el><el>176</el><el>152</el><el>176</el><el>154</el><el>176</el><el>158</el><el>162</el><el>177</el><el>158</el><el>162</el><el>177</el><el>158</el><el>177</el><el>162</el><el>177</el><el>163</el><el>178</el><el>159</el><el>178</el><el>163</el><el>178</el><el>160</el><el>164</el><el>179</el><el>160</el><el>164</el><el>179</el><el>161</el><el>164</el><el>179</el><el>161</el><el>164</el><el>179</el><el>160</el><el>179</el><el>161</el><el>179</el><el>164</el><el>179</el><el>170</el><el>180</el><el>165</el><el>180</el><el>170</el><el>180</el><el>171</el><el>181</el><el>166</el><el>181</el><el>171</el><el>181</el><el>172</el><el>182</el><el>163</el><el>182</el><el>172</el><el>182</el><el>167</el><el>173</el><el>183</el><el>167</el><el>173</el><el>183</el><el>167</el><el>183</el><el>173</el><el>183</el><el>168</el><el>174</el><el>184</el><el>168</el><el>174</el><el>184</el><el>168</el><el>184</el><el>174</el><el>184</el><el mult="3" incr="1">175</el><el>180</el><el>181</el><el>178</el><el>182</el><el mult="3" incr="1">175</el><el>175</el><el>176</el><el>178</el><el>175</el><el>176</el><el>179</el><el>177</el><el>180</el><el>177</el><el>181</el><el>178</el><el>182</el><el>179</el><el>183</el><el>179</el><el>184</el></colIdx><value><el>1</el><el>-.2</el><el>1</el><el>-.2</el><el>1</el><el>-.2</el><el>1</el><el>-.2</el><el>1</el><el>-.2</el><el>1</el><el>-.5</el><el>1</el><el>-.5</el><el>1</el><el>-.7</el><el>1</el><el>-.7</el><el>1</el><el>-1.2</el><el>1</el><el>-1.2</el><el>1</el><el>-.5</el><el>1</el><el>-.7</el><el>1</el><el>-1.2</el><el>1</el><el>-1.2</el><el>1</el><el>-1.2</el><el>1</el><el>-1.2</el><el>1</el><el>-.3</el><el>1</el><el>-.9</el><el>1</el><el>-.3</el><el>1</el><el>-.9</el><el>1</el><el>-.4</el><el>1</el><el>-.4</el><el>1</el><el>-.4</el><el>1</el><el>-1.6</el><el>1</el><el>-1.6</el><el>1</el><el>-1.1</el><el>1</el><el>-1.1</el><el>1</el><el>-.7</el><el>1</el><el>-.7</el><el>1</el><el>-.7</el><el>1</el><el>-.2</el><el>1</el><el>-.7</el><el>1</el><el>-.3</el><el>1</el><el>-.9</el><el mult="12">1</el><el mult="2">-1</el><el>1</el><el>-1</el><el>1</el><el>-1</el><el mult="2">1</el><el>-1</el><el mult="2">1</el><el mult="2">-1</el><el>1</el><el mult="2">-1</el><el>1</el><el>-1</el><el>1</el><el>-1</el><el>1</el><el mult="2">-1</el><el>1</el><el>-1</el><el>1</el><el>-1</el><el>1</el><el>-1</el><el>1</el><el mult="2">-1</el><el mult="2">1</el><el mult="2">-1</el><el>1</el><el mult="3">-1</el><el>1</el><el mult="2">-1</el><el>1</el><el mult="3">-1</el><el mult="2">1</el><el mult="2">-1</el><el>1</el><el>-1</el><el>1</el><el>-1</el><el>1</el><el mult="2">-1</el><el>1</el><el>-1</el><el>1</el><el>-1</el><el>1</el><el>-1</el><el>-.8</el><el>1</el><el>148.75</el><el>-.85</el><el>1</el><el>148.75</el><el>-.8</el><el>1</el><el>148.75</el><el>-.85</el><el>1</el><el>148.75</el><el>-.8</el><el>1</el><el>-148.75</el><el>-.85</el><el>1</el><el>-148.75</el><el>-.8</el><el>1</el><el>-148.75</el><el>-.85</el><el>1</el><el>-148.75</el><el>-.9</el><el>1</el><el>254.045833333333</el><el>-.95</el><el>1</el><el>254.045833333333</el><el>-.9</el><el>1</el><el>254.045833333333</el><el>-.95</el><el>1</el><el>254.045833333333</el><el>-.9</el><el>1</el><el>-166.25</el><el>-.95</el><el>1</el><el>-166.25</el><el>-.9</el><el>1</el><el>-166.25</el><el>-.95</el><el>1</el><el>-166.25</el><el>-.85</el><el>1</el><el>20.4166666666667</el><el>-.98</el><el>1</el><el>20.4166666666667</el><el>-.85</el><el>1</el><el>20.4166666666667</el><el>-.98</el><el>1</el><el>20.4166666666667</el><el>-.85</el><el>1</el><el>20.4166666666667</el><el>-.98</el><el>1</el><el>20.4166666666667</el><el>-.85</el><el>1</el><el>20.4166666666667</el><el>-.98</el><el>1</el><el>20.4166666666667</el><el>-.85</el><el>1</el><el>-20.4166666666667</el><el>-.98</el><el>1</el><el>-20.4166666666667</el><el>-.85</el><el>1</el><el>-20.4166666666667</el><el>-.98</el><el>1</el><el>-20.4166666666667</el><el>-.85</el><el>1</el><el>-20.4166666666667</el><el>-.98</el><el>1</el><el>-20.4166666666667</el><el>-.85</el><el>1</el><el>-20.4166666666667</el><el>-.98</el><el>1</el><el>-20.4166666666667</el><el>-.85</el><el>1</el><el>18.75</el><el>-.9</el><el>1</el><el>18.75</el><el>-.85</el><el>1</el><el>18.75</el><el>-.9</el><el>1</el><el>18.75</el><el>-.85</el><el>1</el><el>-18.75</el><el>-.9</el><el>1</el><el>-18.75</el><el>-.85</el><el>1</el><el>-18.75</el><el>-.9</el><el>1</el><el>-18.75</el><el>-.75</el><el>1</el><el>17.8125</el><el>-.95</el><el>1</el><el>17.8125</el><el>-.9</el><el>1</el><el>17.8125</el><el>-.95</el><el>1</el><el>17.8125</el><el>-.75</el><el>1</el><el>17.8125</el><el>-.95</el><el>1</el><el>17.8125</el><el>-.9</el><el>1</el><el>17.8125</el><el>-.95</el><el>1</el><el>17.8125</el><el>-.75</el><el>1</el><el>-17.8125</el><el>-.95</el><el>1</el><el>-17.8125</el><el>-.9</el><el>1</el><el>-17.8125</el><el>-.95</el><el>1</el><el>-17.8125</el><el>-.75</el><el>1</el><el>-17.8125</el><el>-.95</el><el>1</el><el>-17.8125</el><el>-.9</el><el>1</el><el>-17.8125</el><el>-.95</el><el>1</el><el>-17.8125</el><el>-.8</el><el>1</el><el>66.9375</el><el>-.85</el><el>1</el><el>66.9375</el><el>-.8</el><el>1</el><el>66.9375</el><el>-.85</el><el>1</el><el>66.9375</el><el>-.8</el><el>1</el><el>-15.9375</el><el>-.85</el><el>1</el><el>-15.9375</el><el>-.8</el><el>1</el><el>-15.9375</el><el>-.85</el><el>1</el><el>-15.9375</el><el>-.85</el><el>1</el><el>94.4571428571429</el><el>-.95</el><el>1</el><el>94.4571428571429</el><el>-.85</el><el>1</el><el>94.4571428571429</el><el>-.95</el><el>1</el><el>94.4571428571429</el><el>-.85</el><el>1</el><el>-57</el><el>-.95</el><el>1</el><el>-57</el><el>-.85</el><el>1</el><el>-57</el><el>-.95</el><el>1</el><el>-57</el><el>-.8</el><el>1</el><el>39.4285714285714</el><el>-.92</el><el>1</el><el>39.4285714285714</el><el>-.8</el><el>1</el><el>39.4285714285714</el><el>-.92</el><el>1</el><el>39.4285714285714</el><el>-.8</el><el>1</el><el>-39.4285714285714</el><el>-.92</el><el>1</el><el>-39.4285714285714</el><el>-.8</el><el>1</el><el>-39.4285714285714</el><el>-.92</el><el>1</el><el>-39.4285714285714</el><el>1</el><el>25</el><el>1</el><el>25</el><el>1</el><el>-15</el><el>1</el><el>-15</el><el mult="2">1</el><el>56</el><el mult="2">1</el><el>56</el><el mult="2">1</el><el>36</el><el mult="2">1</el><el>36</el><el>1</el><el>10</el><el>1</el><el>10</el><el mult="3">1</el><el>10</el><el>1</el><el>10</el><el>1</el><el>5</el><el>1</el><el>5</el><el>1</el><el>15</el><el>1</el><el>15</el><el>1</el><el>5</el><el>1</el><el>5</el><el mult="2">1</el><el>29</el><el mult="2">1</el><el>29</el><el mult="2">1</el><el>-6</el><el mult="2">1</el><el>-6</el><el mult="2">1</el><el>29</el><el mult="2">1</el><el>29</el><el mult="2">1</el><el>4</el><el mult="2">1</el><el>4</el><el>1</el><el>15</el><el>1</el><el>15</el><el>1</el><el>-5</el><el>1</el><el>-5</el><el>1</el><el>46</el><el>1</el><el>40</el><el>1</el><el>6</el><el mult="2">1</el><el>37</el><el>1</el><el>30</el><el>1</el><el>7</el><el mult="2">1</el><el>22</el><el>1</el><el>15</el><el>1</el><el>7</el><el mult="2">1</el><el>24</el><el>1</el><el>13</el><el>1</el><el>11</el><el mult="2">1</el><el>23</el><el>1</el><el>13</el><el>1</el><el>10</el><el mult="2">1</el><el>39</el><el>1</el><el>30</el><el>1</el><el>9</el><el mult="2">1</el><el>28</el><el>1</el><el>20</el><el>1</el><el>8</el><el mult="2">1</el><el>23</el><el>1</el><el>15</el><el>1</el><el>8</el><el mult="3">1</el><el>-6</el><el>1</el><el>-40</el><el>1</el><el>-46</el><el mult="2">1</el><el>-7</el><el>1</el><el>-30</el><el>1</el><el>-37</el><el mult="2">1</el><el>-7</el><el>1</el><el>-15</el><el>1</el><el>-22</el><el mult="2">1</el><el>-11</el><el>1</el><el>-13</el><el>1</el><el>-24</el><el mult="2">1</el><el>-10</el><el>1</el><el>-13</el><el>1</el><el>-23</el><el mult="2">1</el><el>-9</el><el>1</el><el>-30</el><el>1</el><el>-39</el><el mult="2">1</el><el>-8</el><el>1</el><el>-20</el><el>1</el><el>-28</el><el mult="2">1</el><el>-8</el><el>1</el><el>-15</el><el>1</el><el>-23</el><el>4</el><el>8</el><el>5</el><el>8</el><el>10</el><el mult="41">1</el><el mult="2">-1</el><el>1</el><el mult="2">-1</el><el>1</el><el>-1</el><el>1</el><el>-1</el><el>1</el><el mult="4">-1</el><el mult="2">1</el><el mult="2">-1</el><el>1</el><el mult="3">-1</el><el>1</el><el mult="2">-1</el><el>1</el><el mult="3">-1</el><el mult="3">1</el><el>-10</el><el>1</el><el>-2.39789527279837</el><el mult="3">1</el><el>-10</el><el>1</el><el>-2.87747432735804</el><el>-.75</el><el mult="2">1</el><el>-.75</el><el>1</el><el>-1</el><el>1</el><el>-2.87747432735804</el><el>1</el><el>-2.15810574551853</el><el mult="3">1</el><el>-2.87747432735804</el><el>1</el><el>-2.03277599268042</el><el>-1</el><el mult="2">1</el><el>-1</el><el>1</el><el>-1</el><el>-.5</el><el mult="2">1</el><el>-.5</el><el>1</el><el>-1</el><el>1</el><el>-2.87747432735804</el><el>1</el><el>-7</el><el>1</el><el>-3.5</el><el mult="3">1</el><el>-2.15810574551853</el><el>1</el><el>-1.43746550029693</el><el mult="3">1</el><el>-2.15810574551853</el><el>1</el><el>-1.03497516021379</el><el mult="3">1</el><el>-2.03277599268042</el><el>1</el><el>-1.10947836929589</el><el>-.9</el><el mult="2">1</el><el>-.9</el><el>1</el><el>-1</el><el>1</el><el>-3.5</el><el>1</el><el>-3.15</el><el>-.6</el><el mult="2">1</el><el>-.6</el><el>1</el><el>-1</el><el>1</el><el>-3.5</el><el>1</el><el>-2.1</el><el mult="2">1</el><el>-1</el><el mult="2">1</el><el>-1</el><el mult="3">1</el><el>-1</el><el mult="2">1</el><el>-1</el><el mult="2">1</el><el>-1</el><el>1</el><el>-1</el><el>1</el><el>-1</el><el>1</el><el>-1</el><el>1</el><el>-1</el><el>1</el><el>-1</el></value></linearConstraintCoefficients><nonlinearExpressions numberOfNonlinearExpressions="6"><nl idx="264"><negate><ln><sum><number value="1"/><variable idx="151"/></sum></ln></negate></nl><nl idx="267"><product><ln><sum><number value="1"/><variable idx="152"/></sum></ln><number value="-1.2"/></product></nl><nl idx="274"><product><ln><sum><number value="1"/><variable idx="159"/></sum></ln><number value="-1.5"/></product></nl><nl idx="284"><product><ln><sum><number value="1"/><variable idx="165"/></sum></ln><number value="-1.25"/></product></nl><nl idx="287"><product><ln><sum><number value="1"/><variable idx="166"/></sum></ln><number value="-.9"/></product></nl><nl idx="290"><negate><ln><sum><number value="1"/><variable idx="163"/></sum></ln></negate></nl></nonlinearExpressions></instanceData></osil>